{
{ 0 , 12 , 12 , 5 , 5 , 11 , 1 , 10 , 4 , 4 , 12 , 8 , 4 , 6 , 1 },
{ 7 , 0 , 14 , 3 , 12 , 5 , 6 , 8 , 7 , 13 , 13 , 5 , 9 , 1 , 8 },
{ 3 , 6 , 0 , 10 , 9 , 13 , 11 , 11 , 5 , 5 , 2 , 6 , 4 , 15 , 12 },
{ 9 , 13 , 10 , 0 , 2 , 9 , 1 , 15 , 3 , 7 , 15 , 3 , 3 , 13 , 9 },
{ 3 , 12 , 1 , 7 , 0 , 10 , 10 , 8 , 1 , 11 , 3 , 7 , 14 , 15 , 11 },
{ 12 , 3 , 9 , 8 , 13 , 0 , 6 , 8 , 13 , 12 , 15 , 13 , 14 , 4 , 12 },
{ 13 , 4 , 12 , 15 , 14 , 9 , 0 , 3 , 10 , 11 , 13 , 3 , 5 , 1 , 2 },
{ 7 , 8 , 10 , 10 , 8 , 11 , 12 , 0 , 12 , 2 , 12 , 10 , 7 , 4 , 9 },
{ 9 , 10 , 3 , 11 , 13 , 14 , 15 , 9 , 0 , 5 , 9 , 3 , 2 , 14 , 15 },
{ 10 , 6 , 8 , 2 , 10 , 5 , 14 , 10 , 8 , 0 , 12 , 10 , 14 , 4 , 2 },
{ 13 , 15 , 13 , 6 , 12 , 7 , 2 , 11 , 14 , 12 , 0 , 10 , 11 , 13 , 10 },
{ 6 , 12 , 15 , 8 , 7 , 14 , 11 , 15 , 6 , 6 , 14 , 0 , 6 , 5 , 7 },
{ 5 , 11 , 4 , 1 , 8 , 1 , 7 , 12 , 12 , 15 , 7 , 10 , 0 , 3 , 2 },
{ 2 , 1 , 1 , 7 , 8 , 15 , 15 , 12 , 13 , 6 , 14 , 7 , 14 , 0 , 9 },
{ 2 , 8 , 8 , 2 , 6 , 6 , 12 , 7 , 11 , 2 , 9 , 2 , 15 , 10 , 0 }
}